NAME 
ROWS
 N  OBJ
 L  R0      
 L  R1      
 L  R2      
 E  R3      
 E  R4      
 E  R5      
 E  R6      
 E  R7      
 E  R8      
 E  R9      
 E  R10     
 E  R11     
 E  R12     
 E  R13     
 E  R14     
 E  R15     
 E  R16     
 E  R17     
 E  R18     
 E  R19     
 E  R20     
 E  R21     
 E  R22     
COLUMNS
    MARKER    'MARKER'                 'INTORG'
    I0(11)    OBJ       -68
    I0(11)    R0        -56
    I0(11)    R1        -83
    I0(11)    R2        118
    I0(11)    R3        8
    I0(11)    R5        6
    I0(11)    R6        3
    I0(11)    R7        17
    I0(11)    R8        10
    I0(11)    R9        9
    I0(11)    R10       5
    I0(11)    R22       1
    I1(10)    OBJ       -105
    I1(10)    R0        14
    I1(10)    R1        44
    I1(10)    R2        -54
    I1(10)    R3        5
    I1(10)    R5        4
    I1(10)    R7        13
    I1(10)    R8        15
    I1(10)    R9        8
    I1(10)    R10       1
    I1(10)    R22       1
    I2(12)    OBJ       117
    I2(12)    R0        -133
    I2(12)    R1        -165
    I2(12)    R2        95
    I2(12)    R3        -1
    I2(12)    R4        7
    I2(12)    R5        5
    I2(12)    R6        9
    I2(12)    R7        9
    I2(12)    R8        2
    I2(12)    R9        4
    I2(12)    R10       16
    I2(12)    R22       1
    I3(12)    OBJ       166
    I3(12)    R0        101
    I3(12)    R1        60
    I3(12)    R2        52
    I3(12)    R3        19
    I3(12)    R4        18
    I3(12)    R5        13
    I3(12)    R6        6
    I3(12)    R7        11
    I3(12)    R8        18
    I3(12)    R9        14
    I3(12)    R10       7
    I3(12)    R22       1
    I4(11)    OBJ       -157
    I4(11)    R0        80
    I4(11)    R1        164
    I4(11)    R2        164
    I4(11)    R3        3
    I4(11)    R4        9
    I4(11)    R5        8
    I4(11)    R7        5
    I4(11)    R8        19
    I4(11)    R9        11
    I4(11)    R10       10
    I4(11)    R22       1
    I5(12)    OBJ       -185
    I5(12)    R0        -200
    I5(12)    R1        181
    I5(12)    R2        34
    I5(12)    R3        6
    I5(12)    R4        15
    I5(12)    R5        7
    I5(12)    R6        17
    I5(12)    R7        7
    I5(12)    R8        6
    I5(12)    R9        15
    I5(12)    R10       13
    I5(12)    R22       1
    I6(10)    OBJ       -116
    I6(10)    R0        192
    I6(10)    R1        188
    I6(10)    R2        38
    I6(10)    R3        10
    I6(10)    R4        -1
    I6(10)    R6        10
    I6(10)    R8        8
    I6(10)    R9        3
    I6(10)    R10       14
    I6(10)    R22       1
    I7(10)    OBJ       69
    I7(10)    R0        -186
    I7(10)    R1        -127
    I7(10)    R2        -93
    I7(10)    R3        9
    I7(10)    R4        18
    I7(10)    R6        6
    I7(10)    R7        7
    I7(10)    R8        1
    I7(10)    R10       9
    I7(10)    R22       1
    MARKER    'MARKER'                 'INTEND'
    C8(17)    OBJ       5
    C8(17)    R0        3
    C8(17)    R2        -7
    C8(17)    R3        1
    C8(17)    R6        3
    C8(17)    R7        10
    C8(17)    R8        10
    C8(17)    R10       19
    C8(17)    R11       15
    C8(17)    R12       6
    C8(17)    R13       2
    C8(17)    R14       19
    C8(17)    R15       3
    C8(17)    R16       10
    C8(17)    R17       11
    C8(17)    R18       10
    C8(17)    R19       16
    C8(17)    R20       1
    C9(19)    OBJ       8
    C9(19)    R0        -2
    C9(19)    R1        4
    C9(19)    R2        1
    C9(19)    R3        15
    C9(19)    R4        5
    C9(19)    R6        -1
    C9(19)    R7        13
    C9(19)    R8        10
    C9(19)    R9        10
    C9(19)    R10       19
    C9(19)    R12       15
    C9(19)    R13       5
    C9(19)    R15       2
    C9(19)    R16       15
    C9(19)    R17       1
    C9(19)    R18       16
    C9(19)    R19       12
    C9(19)    R20       5
    C9(19)    R21       11
    C10(18)   OBJ       1
    C10(18)   R0        6
    C10(18)   R1        -3
    C10(18)   R2        -7
    C10(18)   R4        1
    C10(18)   R5        16
    C10(18)   R6        3
    C10(18)   R9        6
    C10(18)   R10       5
    C10(18)   R11       3
    C10(18)   R12       1
    C10(18)   R13       15
    C10(18)   R14       18
    C10(18)   R15       9
    C10(18)   R16       1
    C10(18)   R17       2
    C10(18)   R18       8
    C10(18)   R19       3
    C10(18)   R21       14
    C11(17)   OBJ       -1
    C11(17)   R0        6
    C11(17)   R1        3
    C11(17)   R2        -7
    C11(17)   R3        14
    C11(17)   R4        14
    C11(17)   R5        11
    C11(17)   R7        7
    C11(17)   R8        1
    C11(17)   R9        13
    C11(17)   R10       19
    C11(17)   R11       11
    C11(17)   R12       15
    C11(17)   R16       5
    C11(17)   R18       11
    C11(17)   R19       5
    C11(17)   R20       -1
    C11(17)   R21       15
    C12(18)   OBJ       -4
    C12(18)   R1        -1
    C12(18)   R2        -9
    C12(18)   R3        14
    C12(18)   R4        5
    C12(18)   R5        18
    C12(18)   R6        14
    C12(18)   R9        17
    C12(18)   R10       13
    C12(18)   R11       7
    C12(18)   R13       1
    C12(18)   R14       -1
    C12(18)   R15       15
    C12(18)   R16       19
    C12(18)   R17       2
    C12(18)   R18       18
    C12(18)   R19       4
    C12(18)   R20       -1
    C12(18)   R21       5
    C13(17)   OBJ       7
    C13(17)   R0        -2
    C13(17)   R1        -5
    C13(17)   R2        9
    C13(17)   R3        10
    C13(17)   R5        -1
    C13(17)   R6        3
    C13(17)   R7        15
    C13(17)   R8        11
    C13(17)   R11       -1
    C13(17)   R12       17
    C13(17)   R13       1
    C13(17)   R14       5
    C13(17)   R17       17
    C13(17)   R18       6
    C13(17)   R19       -1
    C13(17)   R20       7
    C13(17)   R21       18
    C14(19)   R0        2
    C14(19)   R1        -3
    C14(19)   R2        2
    C14(19)   R3        18
    C14(19)   R4        1
    C14(19)   R5        19
    C14(19)   R6        8
    C14(19)   R7        8
    C14(19)   R10       -1
    C14(19)   R11       11
    C14(19)   R13       18
    C14(19)   R14       9
    C14(19)   R15       13
    C14(19)   R16       9
    C14(19)   R17       14
    C14(19)   R18       17
    C14(19)   R19       6
    C14(19)   R20       16
    C14(19)   R21       11
    C15(16)   OBJ       -9
    C15(16)   R0        4
    C15(16)   R1        -5
    C15(16)   R2        2
    C15(16)   R3        12
    C15(16)   R5        5
    C15(16)   R7        17
    C15(16)   R8        12
    C15(16)   R9        4
    C15(16)   R10       14
    C15(16)   R11       6
    C15(16)   R12       15
    C15(16)   R14       3
    C15(16)   R15       3
    C15(16)   R18       16
    C15(16)   R19       10
    C15(16)   R20       14
    C16(16)   OBJ       -2
    C16(16)   R0        -2
    C16(16)   R1        -7
    C16(16)   R2        -8
    C16(16)   R3        8
    C16(16)   R4        8
    C16(16)   R5        4
    C16(16)   R6        8
    C16(16)   R8        18
    C16(16)   R10       16
    C16(16)   R11       12
    C16(16)   R12       16
    C16(16)   R13       12
    C16(16)   R14       4
    C16(16)   R19       7
    C16(16)   R20       6
    C16(16)   R21       13
    C17(19)   OBJ       -4
    C17(19)   R0        5
    C17(19)   R1        -5
    C17(19)   R2        -3
    C17(19)   R3        19
    C17(19)   R4        10
    C17(19)   R6        1
    C17(19)   R8        11
    C17(19)   R9        16
    C17(19)   R10       18
    C17(19)   R11       18
    C17(19)   R12       2
    C17(19)   R13       1
    C17(19)   R14       7
    C17(19)   R15       8
    C17(19)   R16       3
    C17(19)   R17       12
    C17(19)   R18       14
    C17(19)   R19       12
    C17(19)   R21       10
    C18(16)   OBJ       -6
    C18(16)   R0        -6
    C18(16)   R1        -3
    C18(16)   R2        3
    C18(16)   R3        12
    C18(16)   R4        17
    C18(16)   R7        14
    C18(16)   R8        -1
    C18(16)   R9        6
    C18(16)   R10       14
    C18(16)   R11       2
    C18(16)   R12       11
    C18(16)   R14       18
    C18(16)   R15       10
    C18(16)   R17       18
    C18(16)   R18       3
    C18(16)   R19       -1
    C19(18)   OBJ       3
    C19(18)   R0        -8
    C19(18)   R1        -2
    C19(18)   R2        7
    C19(18)   R3        15
    C19(18)   R4        4
    C19(18)   R5        15
    C19(18)   R7        11
    C19(18)   R8        16
    C19(18)   R10       12
    C19(18)   R11       -1
    C19(18)   R13       15
    C19(18)   R15       14
    C19(18)   R16       16
    C19(18)   R17       3
    C19(18)   R18       3
    C19(18)   R19       18
    C19(18)   R20       12
    C19(18)   R21       1
    C20(1)    R3        1
    C21(1)    R4        1
    C22(1)    R5        1
    C23(1)    R6        1
    C24(1)    R7        1
    C25(1)    R8        1
    C26(1)    R9        1
    C27(1)    R10       1
    C28(1)    R11       1
    C29(1)    R12       1
    C30(1)    R13       1
    C31(1)    R14       1
    C32(1)    R15       1
    C33(1)    R16       1
    C34(1)    R17       1
    C35(1)    R18       1
    C36(1)    R19       1
    C37(1)    R20       1
    C38(1)    R21       1
    C39(1)    R22       1
RHS
    RHS1      R0        -3.8633333333333331e+02
    RHS1      R1        3.4491666666666669e+02
    RHS1      R2        7.4833333333333329e+01
    RHS1      R3        53
    RHS1      R4        86
    RHS1      R5        98
    RHS1      R6        84
    RHS1      R7        74
    RHS1      R8        72
    RHS1      R9        78
    RHS1      R10       83
    RHS1      R11       73
    RHS1      R12       61
    RHS1      R13       84
    RHS1      R14       65
    RHS1      R15       67
    RHS1      R16       54
    RHS1      R17       63
    RHS1      R18       68
    RHS1      R19       96
    RHS1      R20       97
    RHS1      R21       78
    RHS1      R22       2
BOUNDS
 UP BND1      I0(11)    2
 UP BND1      I1(10)    2
 UP BND1      I2(12)    2
 UP BND1      I3(12)    2
 UP BND1      I4(11)    2
 UP BND1      I5(12)    2
 UP BND1      I6(10)    2
 UP BND1      I7(10)    2
ENDATA
